
Gurobi 7.0.2 (linux64) logging started Tue Mar 29 10:02:44 2022


Gurobi 7.0.2 (linux64) logging started Tue Mar 29 10:02:48 2022


Gurobi 7.0.2 (linux64) logging started Tue Mar 29 10:02:55 2022


Gurobi 7.0.2 (linux64) logging started Tue Mar 29 10:03:02 2022

